#######################################################
#CASTEP cell file: convergence_study/BeC_tube+wire.cell
#Created using the Atomic Simulation Environment (ASE)#
#######################################################

%BLOCK LATTICE_CART
19.123050 -0.786458 -0.004737
 0.785460 18.503476 -0.004612
-0.005060  0.000238  2.446773
%ENDBLOCK LATTICE_CART

%BLOCK POSITIONS_ABS
Be  9.173380  9.640678  0.922264
C 12.597044  9.062198  1.220714
C 11.610450  7.169082 -0.002682
C  9.675929  6.231312  1.220797
C  7.556600  6.578631 -0.002650
C  6.047119  8.102830  1.220728
C  5.736617 10.224209 -0.002548
C  6.723738 12.117559  1.221097
C  8.656899 13.057291 -0.002473
C 10.776571 12.707153  1.220820
C 12.286752 11.184390 -0.003053
C 12.405975  8.365219 -0.002831
C 11.032101  6.721075  1.220418
C  8.950701  6.202179 -0.003246
C  6.942550  6.974945  1.220846
C  5.797391  8.785903 -0.002531
C  5.928279 10.920591  1.220909
C  7.300757 12.567315 -0.002168
C  9.382375 13.083615  1.221531
C 11.391566 12.312049 -0.002483
C 12.535954 10.500809  1.220568
%ENDBLOCK POSITIONS_ABS

KPOINT_MP_GRID: 1 1 500

%BLOCK CELL_CONSTRAINTS
       0       0       1
       0       0       0
%ENDBLOCK CELL_CONSTRAINTS
