#=======================================================
# FHI-aims file: ./geometry.in
# Created using the Atomic Simulation Environment (ASE)
# Wed Mar 23 11:16:11 2022
#=======================================================
lattice_vector 19.1230500920855988 -0.7864584387815090 -0.0047368448756341 
lattice_vector 0.7854599010840190 18.5034761550599001 -0.0046123434535686 
lattice_vector -0.0050596542637402 0.0002380741830080 2.4467731590289699 
atom_frac 0.4576039559405297 0.5404646050286284 0.3788355671289597 Be
