Electron-phonon coefficients for Be
 &inputph
  tr2_ph    = 1.0d-16,
  prefix    = 'Fine',
  fildvscf  = 'dvscf',
  outdir    = './temp/',
  fildyn    = 'becnt.dyn',
  electron_phonon='interpolated',
  el_ph_sigma = 0.01,
  el_ph_nsigma= 10,
  trans     = .true.,
  ldisp     = .true.
  nq1=1, nq2=1, nq3=40
  recover   = .true.
 /
0. 0. 0.
