&input
 fildyn = 'becnt.dyn',
 zasr   = 'crystal',
 flfrc  = 'becnt.fc'
/
