&CONTROL
  calculation  = "scf",
  outdir       = "./temp/"  
  pseudo_dir   = "./",
  max_seconds  = 359900
  prefix       = "Fine"
  nstep        = 200
/
&SYSTEM
! nosym       = .TRUE.,
  ibrav       = 0,
  nat         = 21, ntyp = 2,
  ecutwfc     = 60.0D0,
  occupations = "smearing", 
  degauss     = 0.025, 
  smearing    = "mp",
! la2F        = .true.
/
&ELECTRONS
  conv_thr    = 1.D-12,
  mixing_beta = 0.5D0,
  mixing_mode =	'local-TF',
  electron_maxstep  = 200
  scf_must_converge = .false.
/
&IONS
  bfgs_ndim         = 3,
  upscale           = 100.D0,
/
ATOMIC_SPECIES
C 1  C.blyp-hgh.UPF
Be 1 Be.blyp-s-hgh.UPF
ATOMIC_POSITIONS {crystal} 
 Be       0.500354302   0.499874315   0.377916889  
 C        0.677823650   0.461108085   0.500264701  
 C        0.621992575   0.361042000   0.000154895  
 C        0.519055193   0.314855478   0.499984159  
 C        0.409064197   0.338170288  -0.000269870  
 C        0.333777131   0.423864439   0.499562579  
 C        0.322146448   0.538881135  -0.000427442  
 C        0.378005580   0.638958637   0.499783578  
 C        0.480876336   0.685254012  -0.000083133  
 C        0.590878923   0.661786352   0.500108633  
 C        0.666205691   0.576168076   0.000073666  
 C        0.666174307   0.423810428   0.000179393  
 C        0.590936432   0.338272855   0.499975904  
 C        0.481003486   0.314771593  -0.000362521  
 C        0.378017777   0.361031193   0.499708037  
 C        0.322127726   0.461150274  -0.000413156  
 C        0.333825399   0.576145209   0.499621805  
 C        0.408996193   0.661825067  -0.000104856  
 C        0.518934706   0.685185839   0.500248187  
 C        0.621977397   0.638988662   0.000209356  
 C        0.677826550   0.538856060   0.500197197  
K_POINTS automatic
1 1 40  0 0 0
!

CELL_PARAMETERS { angstrom }
       19.1230500920856      -0.786458438781509      -0.473684487563405E-02
      0.785459901084019        18.5034761550599      -0.461234345356856E-02
     -0.505965426374022E-02   0.238074183008010E-03    2.44677315902897
