#=======================================================
# FHI-aims file: ./geometry.in
# Created using the Atomic Simulation Environment (ASE)
# Tue Mar 22 18:22:56 2022
#=======================================================
lattice_vector 19.1230500920855988 -0.7864584387815090 -0.0047368448756341 
lattice_vector 0.7854599010840190 18.5034761550599001 -0.0046123434535686 
lattice_vector -0.0050596542637402 0.0002380741830080 2.4467731590289699 
atom 9.1733798699999998 9.6406776300000008 0.9222642900000000 Be
atom 12.5970435900000002 9.0621983600000000 1.2207144700000001 C
atom 11.6104499099999998 7.1690815499999996 -0.0026821200000000 C
atom 9.6759293599999996 6.2313117699999996 1.2207965400000000 C
atom 7.5565995299999997 6.5786306300000001 -0.0026495200000000 C
atom 6.0471186799999996 8.1028299399999995 1.2207284199999999 C
atom 5.7366170700000003 10.2242093199999999 -0.0025475100000000 C
atom 6.7237378300000001 12.1175589600000002 1.2210965899999999 C
atom 8.6568988499999993 13.0572907300000001 -0.0024733300000000 C
atom 10.7765708399999998 12.7071530100000007 1.2208202900000000 C
atom 12.2867522099999995 11.1843897699999992 -0.0030533600000000 C
atom 12.4059745100000001 8.3652185299999999 -0.0028307800000000 C
atom 11.0321011400000000 6.7210745200000002 1.2204182200000000 C
atom 8.9507007000000005 6.2021792900000001 -0.0032457800000000 C
atom 6.9425498200000000 6.9749450499999996 1.2208455300000001 C
atom 5.7973910699999998 8.7859034200000004 -0.0025309700000000 C
atom 5.9282789300000003 10.9205911699999998 1.2209093499999999 C
atom 7.3007572700000001 12.5673149399999993 -0.0021683700000000 C
atom 9.3823745899999995 13.0836149200000005 1.2215313299999999 C
atom 11.3915658999999998 12.3120488100000003 -0.0024826200000000 C
atom 12.5359538199999996 10.5008087499999991 1.2205678000000000 C
