#=======================================================
# FHI-aims file: ./geometry.in
# Created using the Atomic Simulation Environment (ASE)
# Wed Mar 23 11:52:14 2022
#=======================================================
lattice_vector 19.1230500920855988 -0.7864584387815090 -0.0047368448756341 
lattice_vector 0.7854599010840190 18.5034761550599001 -0.0046123434535686 
lattice_vector -0.0050596542637402 0.0002380741830080 2.4467731590289699 
atom_frac 0.4576039559405297 0.5404646050286284 0.3788355671289597 Be
atom_frac 0.6376395291733552 0.5168518588366373 0.5011166496163609 C
atom_frac 0.5902001938325643 0.4125305544133777 0.0008240646904103 C
atom_frac 0.4914250660097066 0.3576451220653637 0.5005670108500009 C
atom_frac 0.3798902593643311 0.3716814283196940 0.0003532340658174 C
atom_frac 0.2978474742508376 0.4505615816075175 0.5003395666353180 C
atom_frac 0.2768056421304506 0.5643212784823873 0.0005584984194171 C
atom_frac 0.3242720028428939 0.6686563133111021 0.5009523192704981 C
atom_frac 0.4229718032886352 0.7236445780675205 0.0011721230228158 C
atom_frac 0.5345307011397454 0.7094569543874768 0.5013233587369093 C
atom_frac 0.6166068188530998 0.6306558312707725 0.0011346422265330 C
atom_frac 0.6290774756403132 0.4788268710010283 0.0009635451459888 C
atom_frac 0.5611343771558117 0.3870766847037711 0.5006028256406881 C
atom_frac 0.4534989770222853 0.3544651437500547 0.0002195909697327 C
atom_frac 0.3470898964058646 0.3916992483844440 0.5003718010978608 C
atom_frac 0.2831653045341087 0.4868599275664521 0.0004315501490440 C
atom_frac 0.2853999553572267 0.6023153207547222 0.5006754818778861 C
atom_frac 0.3532645327785004 0.6942015890365455 0.0011063082969077 C
atom_frac 0.4609170091267121 0.7266735981712606 0.5015039036447320 C
atom_frac 0.5673777521287582 0.6895065227116938 0.0013835370399786 C
atom_frac 0.6312626942087733 0.5943289363736021 0.5011904099535986 C
