#######################################################
#CASTEP cell file: phonons_tight/BeC.cell
#Created using the Atomic Simulation Environment (ASE)#
#######################################################

%BLOCK LATTICE_CART
19.123050 -0.786458 -0.004757
 0.785460 18.503476 -0.004614
-0.005062  0.000238  2.448977
%ENDBLOCK LATTICE_CART

%BLOCK POSITIONS_ABS
Be  9.173388  9.640318  0.923107
C 12.594279  9.065311  1.222646
C 11.605738  7.169149 -0.002088
C  9.675036  6.233638  1.222064
C  7.559504  6.579685 -0.002774
C  6.050420  8.103629  1.221352
C  5.739162 10.221031 -0.003479
C  6.728524 12.117501  1.221469
C  8.657673 13.054910 -0.002683
C 10.773701 12.705900  1.222138
C 12.283658 11.183675 -0.002336
C 12.402682  8.365110 -0.002110
C 11.029085  6.722907  1.221990
C  8.949301  6.204007 -0.003184
C  6.946185  6.976782  1.221241
C  5.800227  8.785388 -0.003549
C  5.931881 10.920925  1.221344
C  7.303837 12.565610 -0.002584
C  9.383548 13.081812  1.222561
C 11.388007 12.310267 -0.001929
C 12.532902 10.501479  1.222506
%ENDBLOCK POSITIONS_ABS

