#######################################################
#CASTEP cell file: phonons/BeC.cell
#Created using the Atomic Simulation Environment (ASE)#
#######################################################

%BLOCK LATTICE_CART
19.123050 -0.786458 -0.004837
 0.785460 18.503476 -0.004627
-0.005078  0.000241  2.461912
%ENDBLOCK LATTICE_CART

%BLOCK POSITIONS_ABS
Be  9.173021  9.637573  0.928192
C 12.592717  9.065809  1.230047
C 11.600094  7.172328 -0.001468
C  9.672524  6.236548  1.228684
C  7.562750  6.584312 -0.003408
C  6.054831  8.105651  1.226865
C  5.740116 10.221042 -0.004440
C  6.734617 12.114470  1.227158
C  8.660103 13.052216 -0.002991
C 10.770221 12.700956  1.229045
C 12.279831 11.182392 -0.001297
C 12.400833  8.366631 -0.001214
C 11.024515  6.727254  1.229051
C  8.949972  6.205667 -0.003103
C  6.953628  6.982790  1.227068
C  5.801708  8.784600 -0.004488
C  5.934302 10.919542  1.226844
C  7.308408 12.561777 -0.003356
C  9.382768 13.080145  1.228788
C 11.380843 12.304723 -0.001440
C 12.530848 10.502623  1.230047
%ENDBLOCK POSITIONS_ABS

