#######################################################
#CASTEP cell file: convergence_study/Be_nanowire.cell
#Created using the Atomic Simulation Environment (ASE)#
#######################################################

%BLOCK LATTICE_CART
19.123050 -0.786458 -0.004737
 0.785460 18.503476 -0.004612
-0.005060  0.000238  2.446773
%ENDBLOCK LATTICE_CART

%BLOCK POSITIONS_ABS
Be  9.173380  9.640678  0.922264
%ENDBLOCK POSITIONS_ABS

KPOINT_MP_GRID: 1 1 500
FIX_ALL_CELL: true
